tests = {"euclid"};
datFiles = [{"benchmark_data/Euclid/1011EuclS.txt_new","benchmark_data/Euclid/1111EuclS.txt_new","benchmark_data/Euclid/111EuclS.txt_new","benchmark_data/Euclid/1211EuclS.txt_new","benchmark_data/Euclid/1311EuclS.txt_new","benchmark_data/Euclid/1411EuclS.txt_new","benchmark_data/Euclid/1511EuclS.txt_new","benchmark_data/Euclid/1611EuclS.txt_new","benchmark_data/Euclid/1711EuclS.txt_new","benchmark_data/Euclid/1811EuclS.txt_new","benchmark_data/Euclid/1911EuclS.txt_new","benchmark_data/Euclid/2011EuclS.txt_new","benchmark_data/Euclid/2111EuclS.txt_new","benchmark_data/Euclid/211EuclS.txt_new","benchmark_data/Euclid/2211EuclS.txt_new","benchmark_data/Euclid/2311EuclS.txt_new","benchmark_data/Euclid/2411EuclS.txt_new","benchmark_data/Euclid/2511EuclS.txt_new","benchmark_data/Euclid/2611EuclS.txt_new","benchmark_data/Euclid/2711EuclS.txt_new","benchmark_data/Euclid/2811EuclS.txt_new","benchmark_data/Euclid/2911EuclS.txt_new","benchmark_data/Euclid/3011EuclS.txt_new","benchmark_data/Euclid/311EuclS.txt_new","benchmark_data/Euclid/411EuclS.txt_new","benchmark_data/Euclid/511EuclS.txt_new","benchmark_data/Euclid/611EuclS.txt_new","benchmark_data/Euclid/711EuclS.txt_new","benchmark_data/Euclid/811EuclS.txt_new","benchmark_data/Euclid/911EuclS.txt_new"}];
cont = 0;
